results_rootrelaxation/bin018_070_024.srr.sol
solution status: optimal solution found
objective value:                     1.44947010270446
_var2797_                           0.140702884130793 	(obj:0)
_var2867_                            0.12771645477584 	(obj:0)
_var2876_                           0.335697613646907 	(obj:0)
_var2974_                           0.404149551145372 	(obj:0)
_var3012_                         0.00817479652353489 	(obj:0)
_var3021_                          0.0023454346466113 	(obj:0)
_var3112_                           0.305212824936506 	(obj:0)
_var3119_                           0.035117545278142 	(obj:0)
_var3144_                          0.0976317740718448 	(obj:0)
_var3176_                           0.133204388632691 	(obj:0)
_var3186_                           0.340703375756862 	(obj:0)
_var3203_                          0.0474356152599846 	(obj:0)
_var3212_                            0.14910332442608 	(obj:0)
_var3269_                            0.13896889368245 	(obj:0)
_var3290_                          0.0291652768775123 	(obj:0)
_var3297_                           0.269817826059658 	(obj:0)
_var3300_                           0.250571672907804 	(obj:0)
_var3304_                           0.124909963092743 	(obj:1)
_var3321_                           0.393393717623576 	(obj:0)
_var3329_                           0.105923993597255 	(obj:0)
_var3335_                           0.302510646226116 	(obj:0)
_var3342_                           0.029133258152321 	(obj:1)
_var3361_                           0.263917808688865 	(obj:0)
_var3370_                          0.0812373043864027 	(obj:0)
_var3379_                          0.0915382577124153 	(obj:0)
_var3384_                          0.0307019865980013 	(obj:0)
_var3385_                           0.228886045861417 	(obj:0)
_var3388_                           0.103320077076897 	(obj:0)
_var3393_                           0.432672751737156 	(obj:1)
_var3396_                           0.246712723207691 	(obj:0)
_var3398_                          0.0478252919691805 	(obj:0)
_var3404_                           0.254750368656548 	(obj:0)
_var3405_                          0.0337488078067324 	(obj:0)
_var3406_                          0.0520193352761467 	(obj:0)
_var3417_                          0.0203978818226741 	(obj:0)
_var3418_                         0.00463332382855511 	(obj:0)
_var3420_                          0.0581073681137571 	(obj:0)
_var3426_                           0.220837748513848 	(obj:0)
_var3428_                            0.33773609712918 	(obj:0)
_var3434_                           0.391324286908949 	(obj:0)
_var3445_                          0.0664134540161919 	(obj:0)
_var3446_                           0.196906965938386 	(obj:0)
_var3447_                          0.0529810315525746 	(obj:0)
_var3450_                          0.0792975242970445 	(obj:0)
_var3458_                           0.165706546114901 	(obj:1)
_var3466_                           0.103057372261041 	(obj:0)
_var3468_                           0.220591242147553 	(obj:0)
_var3471_                         0.00339392183749629 	(obj:0)
_var3480_                            0.22029229566444 	(obj:0)
_var3481_                           0.138761339229826 	(obj:0)
_var3483_                          0.0383902938890577 	(obj:0)
_var3488_                         0.00210586146885283 	(obj:0)
_var3490_                          0.0581717207089874 	(obj:0)
_var3496_                          0.0635141836649441 	(obj:0)
_var3500_                           0.124037767977207 	(obj:0)
_var3505_                          0.0193023750078466 	(obj:0)
_var3524_                           0.121780132708791 	(obj:0)
_var3527_                           0.583056194879569 	(obj:0)
_var3529_                          0.0467151309149672 	(obj:1)
_var3532_                             0.1169657896309 	(obj:0)
_var3533_                           0.327620385994561 	(obj:0)
_var3540_                           0.263917808688865 	(obj:0)
_var3543_                          0.0666045579033428 	(obj:1)
_var3544_                           0.116915870673605 	(obj:0)
_var3545_                          0.0795894115336472 	(obj:0)
_var3547_                           0.274221913464236 	(obj:0)
_var3549_                           0.116593288320567 	(obj:0)
_var3551_                           0.135644272215623 	(obj:0)
_var3553_                           0.116593288320567 	(obj:0)
_var3557_                           0.103458803876228 	(obj:0)
_var3559_                           0.109610811135131 	(obj:0)
_var3561_                          0.0384555604045826 	(obj:0)
_var3562_                          0.0565003810732519 	(obj:0)
_var3563_                           0.173417827471513 	(obj:1)
_var3564_                          0.0130481347327729 	(obj:0)
_var3567_                           0.212978286009914 	(obj:0)
_var3568_                           0.135185295135769 	(obj:0)
_var3577_                           0.121618778503295 	(obj:0)
_var3578_                          0.0924281009442007 	(obj:0)
_var3582_                           0.111640344501327 	(obj:0)
_var3585_                          0.0486920350773911 	(obj:0)
_var3587_                            0.11148497804952 	(obj:0)
_var3590_                          0.0621692711504315 	(obj:0)
_var3591_                           0.013457066797369 	(obj:0)
_var3592_                           0.139622063069844 	(obj:0)
_var3594_                          0.0826898704098883 	(obj:1)
_var3598_                           0.109011027299368 	(obj:0)
_var3599_                           0.204897150560365 	(obj:0)
_var3604_                           0.308580400657617 	(obj:0)
_var3607_                           0.108381493781927 	(obj:0)
_var3608_                           0.229922494515833 	(obj:0)
_var3610_                         0.00955916518358799 	(obj:1)
_var3615_                           0.199537858864991 	(obj:0)
_var3623_                           0.135894717893586 	(obj:0)
_var3624_                           0.278985896381863 	(obj:0)
_var3625_                          0.0378220560610074 	(obj:0)
_var3628_                           0.173577164749483 	(obj:1)
_var3631_                           0.217525827387822 	(obj:0)
_var3634_                          0.0030870337021122 	(obj:0)
_var3635_                           0.206093881927548 	(obj:0)
_var3637_                           0.174797153812661 	(obj:0)
_var3638_                          0.0410802764905262 	(obj:0)
_var3640_                           0.106195648529204 	(obj:0)
_var3641_                          0.0902534748510522 	(obj:1)
_var3645_                           0.247563236351882 	(obj:0)
_var3647_                          0.0746642004684981 	(obj:0)
_var3648_                          0.0769640651578594 	(obj:0)
_var3649_                           0.129341405077457 	(obj:0)
_var3654_                          0.0131424891256077 	(obj:1)
_var3655_                          0.0369097114810354 	(obj:0)
_var3657_                         0.00744447965663933 	(obj:0)
_var3658_                          0.0554094753744402 	(obj:0)
_var3659_                           0.106251303124313 	(obj:0)
_var3662_                          0.0800897356287045 	(obj:0)
_var3663_                          0.0215576782037376 	(obj:0)
_var3664_                            0.10678263748071 	(obj:0)
_var3665_                         0.00310650965893286 	(obj:1)
_var3667_                           0.102519955607416 	(obj:0)
_var3669_                           0.155930624246633 	(obj:0)
_var3670_                         0.00463332382855415 	(obj:0)
_var3671_                         0.00463332382855405 	(obj:0)
_var3673_                          0.0518165079975067 	(obj:0)
_var3674_                          0.0718099958426024 	(obj:0)
_var3680_                          0.0617801301876352 	(obj:0)
_var3681_                          0.0227578131361865 	(obj:0)
_var3683_                           0.047770299178427 	(obj:0)
_var3684_                         0.00182128559466643 	(obj:0)
_var3685_                           0.188416016018432 	(obj:0)
_var3686_                          0.0379813933389672 	(obj:1)
_var3687_                         0.00833873491746715 	(obj:0)
_var3688_                         0.00274711837775729 	(obj:0)
_var3690_                          0.0809611113674363 	(obj:0)
_var3692_                         0.00310650965894731 	(obj:0)
_var3693_                          0.0745634171190473 	(obj:0)
_var3694_                          0.0588312560239909 	(obj:0)
_var3696_                         0.00288877602498214 	(obj:0)
_var3697_                          0.0512027317266601 	(obj:0)
_var3699_                          0.0229249029794814 	(obj:0)
_var3700_                          0.0141957034904509 	(obj:0)
_var3702_                          0.0778104814179035 	(obj:0)
_var3704_                          0.0385710925368771 	(obj:0)
